\ENCODING=ISO-8859-1
\Problem name: 

Maximize
 obj: - a0 + a1 + a2 + a3 + a4 + a5 + a6 + a11 + a13 + a15 + a17 + a18 + a19
      + a20 + a21 + a22 + a28 + a29 + a30 + a31 + a32 + a33 + a36 + a39 + a40
      + a43 + a44 + a47 + a48 + a50 + a51 + a52 + a55 + a56 + a58 + a59 + a60
      + a70 + a72 + a74 + a76 + a80 + a84 + a88 + a102 + a103 + a106 + a107
      + a110 + a124 + a125 + a129 + a132 + a138 + a140 + a146 + a147 + a154
      + a161 + a163 + a169 - 0.0001 u1 - 0.0001 u2 - 0.0001 u3 - 0.0001 u4
      - 0.0001 u5 - 0.0001 u6 - 0.0001 u7 - 0.0001 u8 - 0.0001 u9 - 0.0001 u10
      - 0.0001 u11 - 0.0001 u12 - 0.0001 u13 - 0.0001 u14 - 0.0001 u15
      - 0.0001 u16 - 0.0001 u17 - 0.0001 u18 - 0.0001 u19 - 0.0001 u20
      - 0.0001 u21 - 0.0001 u22 - 0.0001 u23 - 0.0001 u24 - 0.0001 u25
      - 0.0001 u26 - 0.0001 u27 - 0.0001 u28 - 0.0001 u29 - 0.0001 u30
      - 0.0001 u31 - 0.0001 u32 - 0.0001 u33 - 0.0001 u34 - 0.0001 u35
      - 0.0001 u36 - 0.0001 u37 - 0.0001 u38 - 0.0001 u39 - 0.0001 u40
      - 0.0001 u41 - 0.0001 u42 - 0.0001 u43 - 0.0001 u44 - 0.0001 u45
      - 0.0001 u46 - 0.0001 u47 - 0.0001 u48 - 0.0001 u49 - 0.0001 u50
      - 0.0001 u51 - 0.0001 u52 - 0.0001 u53 - 0.0001 u54 - 0.0001 u55
      - 0.0001 u56 - 0.0001 u57 - 0.0001 u58 - 0.0001 u59 - 0.0001 u60
      - 0.0001 u61 - 0.0001 u62 - 0.0001 u63 - 0.0001 u64 - 0.0001 u65
      - 0.0001 u66 - 0.0001 u67 - 0.0001 u68 - 0.0001 u69 - 0.0001 u70
      - 0.0001 u71 - 0.0001 u72 - 0.0001 u73 - 0.0001 u74 - 0.0001 u75
      - 0.0001 u76 - 0.0001 u77 - 0.0001 u78 - 0.0001 u79 - 0.0001 u80
      - 0.0001 u81 - 0.0001 u82 - 0.0001 u83 - 0.0001 u84 - 0.0001 u85
      - 0.0001 u86 - 0.0001 u87 - 0.0001 u88 - 0.0001 u89 - 0.0001 u90
      - 0.0001 u91 - 0.0001 u92 - 0.0001 u93 - 0.0001 u94 - 0.0001 u95
      - 0.0001 u96 - 0.0001 u97 - 0.0001 u98 - 0.0001 u99 - 0.0001 u100
      - 0.0001 u101 - 0.0001 u102 - 0.0001 u103 - 0.0001 u104 - 0.0001 u105
      - 0.0001 u106 - 0.0001 u107 - 0.0001 u108 - 0.0001 u109 - 0.0001 u110
      - 0.0001 u111 - 0.0001 u112 - 0.0001 u113 - 0.0001 u114 - 0.0001 u115
      - 0.0001 u116 - 0.0001 u117 - 0.0001 u118 - 0.0001 u119 - 0.0001 u120
      - 0.0001 u121 - 0.0001 u122 - 0.0001 u123 - 0.0001 u124 - 0.0001 u125
      - 0.0001 u126 - 0.0001 u127 - 0.0001 u128 - 0.0001 u129 - 0.0001 u130
      - 0.0001 u131 - 0.0001 u132 - 0.0001 u133 - 0.0001 u134 - 0.0001 u135
      - 0.0001 u136 - 0.0001 u137 - 0.0001 u138 - 0.0001 u139 - 0.0001 u140
      - 0.0001 u141 - 0.0001 u142 - 0.0001 u143 - 0.0001 u144 - 0.0001 u145
      - 0.0001 u146 - 0.0001 u147 - 0.0001 u148 - 0.0001 u149 - 0.0001 u150
      - 0.0001 u151 - 0.0001 u152 - 0.0001 u153 - 0.0001 u154 - 0.0001 u155
      - 0.0001 u156 - 0.0001 u157 - 0.0001 u158 - 0.0001 u159 - 0.0001 u160
      - 0.0001 u161 - 0.0001 u162 - 0.0001 u163 - 0.0001 u164 - 0.0001 u165
      - 0.0001 u166 - 0.0001 u167 - 0.0001 u168 - 0.0001 u169 - 0.0001 u170
      - 0.0001 u171 - 0.0001 u172 - 0.0001 u173 - 0.0001 u174 - 0.0001 u175
      - 0.0001 u176 - 0.0001 u177 - 0.0001 u178 - 0.0001 u179 - 0.0001 u180
      - 0.0001 u181 - 0.0001 u182 - 0.0001 u183 - 0.0001 u184 - 0.0001 u185
      - 0.0001 u186 - 0.0001 u187 - 0.0001 u188 - 0.0001 u189 - 0.0001 u190
      - 0.0001 u191 - 0.0001 u192 - 0.0001 u193 - 0.0001 u194 - 0.0001 u195
      - 0.0001 u196 - 0.0001 u197 - 0.0001 u198 - 0.0001 u199 - 0.0001 u200
      - 0.0001 u201 - 0.0001 u202 - 0.0001 u203 - 0.0001 u204 - 0.0001 u205
      - 0.0001 u206 - 0.0001 u207 - 0.0001 u208 - 0.0001 u209 - 0.0001 u210
      - 0.0001 u211 - 0.0001 u212 - 0.0001 u213 - 0.0001 u214 - 0.0001 u215
      - 0.0001 u216 - 0.0001 u217 - 0.0001 u218 - 0.0001 u219 - 0.0001 u220
      - 0.0001 u221 - 0.0001 u222 - 0.0001 u223 - 0.0001 u224 - 0.0001 u225
      - 0.0001 u226 - 0.0001 u227 - 0.0001 u228 - 0.0001 u229 - 0.0001 u230
      - 0.0001 u231 - 0.0001 u232 - 0.0001 u233 - 0.0001 u234 - 0.0001 u235
      - 0.0001 u236 - 0.0001 u237 - 0.0001 u238 - 0.0001 u239 - 0.0001 u240
      - 0.0001 u241 - 0.0001 u242 - 0.0001 u243 - 0.0001 u244 - 0.0001 u245
      - 0.0001 u246
Subject To
 c1:  - a0 - f0 + u1 - u2 + u3 - u4 + u5 - u6 + u7 - u8 + u9 - u10 + u11 - u12
      + u13 - u14 + u15 - u16 + u17 - u18 + u19 - u20 + u21 - u22 + u23 - u24
      + u25 - u26 + u27 - u28 + u29 - u30 + u31 - u32 + u33 - u34 + u35 - u36
      + u37 - u38 + u39 - u40 + u41 - u42 + u43 - u44 + u45 - u46 + u47 - u48
      + u49 - u50 + u51 - u52 + u53 - u54 + u55 - u56 + u57 - u58 + u59 - u60
      + u61 - u62 + u63 - u64 + u65 - u66 + u67 - u68 + u69 - u70 + u71 - u72
      + u73 - u74 + u75 - u76 + u77 - u78 + u79 - u80 + u81 - u82 + u83 - u84
      + u85 - u86 + u87 - u88 + u89 - u90 + u91 - u92 + u93 - u94 + u95 - u96
      + u97 - u98 + u99 - u100 + u101 - u102 + u103 - u104 + u105 - u106 + u107
      - u108 + u109 - u110 + u111 - u112 + u113 - u114 + u115 - u116 + u117
      - u118 + u119 - u120 + u121 - u122 + u123 - u124 + u125 - u126 + u127
      - u128 + u129 - u130 + u131 - u132 + u133 - u134 + u135 - u136 + u137
      - u138 + u139 - u140 + u141 - u142 + u143 - u144 + u145 - u146 + u147
      - u148 + u149 - u150 + u151 - u152 + u153 - u154 + u155 - u156 + u157
      - u158 + u159 - u160 + u161 - u162 + u163 - u164 + 2 u165 - 2 u166
      + 2 u167 - 2 u168 + 2 u169 - 2 u170 + 2 u171 - 2 u172 + 2 u173 - 2 u174
      + 2 u175 - 2 u176 + 2 u177 - 2 u178 + 2 u179 - 2 u180 + 2 u181 - 2 u182
      + 2 u183 - 2 u184 + 2 u185 - 2 u186 + 2 u187 - 2 u188 + 2 u189 - 2 u190
      + 2 u191 - 2 u192 + 2 u193 - 2 u194 + 2 u195 - 2 u196 + 2 u197 - 2 u198
      + 2 u199 - 2 u200 + 2 u201 - 2 u202 + 2 u203 - 2 u204 + 2 u205 - 2 u206
      + 2 u207 - 2 u208 + 2 u209 - 2 u210 + 2 u211 - 2 u212 + 2 u213 - 2 u214
      + 2 u215 - 2 u216 + 2 u217 - 2 u218 + 2 u219 - 2 u220 + 2 u221 - 2 u222
      + 2 u223 - 2 u224 + 2 u225 - 2 u226 + 2 u227 - 2 u228 + 2 u229 - 2 u230
      + 2 u231 - 2 u232 + 2 u233 - 2 u234 + 2 u235 - 2 u236 - u237 - u238
      - u239 - u240 - u241 - u242 - u243 - u245 - u246  = 0
 c2:  - a1 - f1 + u165 - u166 + u167 - u168  = 0
 c3:  - a2 - f2 + u1 - u2 + u167 - u168 + u169 - u170  = 0
 c4:  - a3 - f3 + u3 - u4 + u169 - u170 + u171 - u172 - u245  = 0
 c5:  - a4 - f4 + u5 - u6 + u171 - u172 + u173 - u174  = 0
 c6:  - a5 - f5 + u7 - u8 + u173 - u174 + u175 - u176  = 0
 c7:  - a6 - f6 + u165 - u166 + u177 - u178  = 0
 c8:  - a11 - f11 + u17 - u18 + u175 - u176 + u187 - u188  = 0
 c9:  - a13 - f13 + u21 - u22 + u179 - u180 + u181 - u182  = 0
 c10: - a15 - f15 + u25 - u26 + u183 - u184 + u185 - u186  = 0
 c11: - a17 - f17 + u29 - u30 + u177 - u178 + u189 - u190  = 0
 c12: - a18 - f18 + u31 - u32 + u179 - u180 + u191 - u192  = 0
 c13: - a19 - f19 + u33 - u34 + u181 - u182 + u193 - u194  = 0
 c14: - a20 - f20 + u35 - u36 + u183 - u184 + u195 - u196  = 0
 c15: - a21 - f21 + u37 - u38 + u185 - u186 + u197 - u198  = 0
 c16: - a22 - f22 + u39 - u40 + u187 - u188 + u199 - u200  = 0
 c17: - a28 - f28 + u51 - u52 + u189 - u190 + u201 - u202  = 0
 c18: - a29 - f29 + u53 - u54 + u191 - u192 + u203 - u204  = 0
 c19: - a30 - f30 + u55 - u56 + u193 - u194 + u205 - u206  = 0
 c20: - a31 - f31 + u57 - u58 + u195 - u196 + u207 - u208  = 0
 c21: - a32 - f32 + u59 - u60 + u197 - u198 + u209 - u210  = 0
 c22: - a33 - f33 + u61 - u62 + u199 - u200 + u211 - u212 - u242  = 0
 c23: - a36 - f36 + u67 - u68 + u205 - u206 + u207 - u208  = 0
 c24: - a39 - f39 + u73 - u74 + u201 - u202 + u213 - u214  = 0
 c25: - a40 - f40 + u75 - u76 + u203 - u204 + u215 - u216  = 0
 c26: - a43 - f43 + u81 - u82 + u209 - u210 + u221 - u222  = 0
 c27: - a44 - f44 + u83 - u84 + u211 - u212 + u223 - u224  = 0
 c28: - a47 - f47 + u89 - u90 + u217 - u218 + u219 - u220 - u237 - u239  = 0
 c29: - a48 - f48 + u91 - u92 + u219 - u220 + u221 - u222  = 0
 c30: - a50 - f50 + u95 - u96 + u213 - u214 + u225 - u226  = 0
 c31: - a51 - f51 + u97 - u98 + u215 - u216 + u227 - u228 + u244  = 0
 c32: - a52 - f52 + u99 - u100 + u217 - u218 + u229 - u230  = 0
 c33: - a55 - f55 + u105 - u106 + u223 - u224 + u235 - u236  = 0
 c34: - a56 - f56 + u107 - u108 + u225 - u226 + u227 - u228  = 0
 c35: - a58 - f58 + u111 - u112 + u229 - u230 + u231 - u232  = 0
 c36: - a59 - f59 + u113 - u114 + u231 - u232 + u233 - u234  = 0
 c37: - a60 - f60 + u115 - u116 + u233 - u234 + u235 - u236  = 0
 c38: - a70 - f70 + u9 - u10 + u117 - u118  = 0
 c39: - a72 - f72 + u11 - u12 + u119 - u120  = 0
 c40: - a74 - f74 + u13 - u14 + u121 - u122  = 0
 c41: - a76 - f76 + u15 - u16 + u123 - u124  = 0
 c42: - a80 - f80 + u19 - u20 + u125 - u126  = 0
 c43: - a84 - f84 + u23 - u24 + u129 - u130  = 0
 c44: - a88 - f88 + u27 - u28 + u133 - u134  = 0
 c45: - a102 - f102 + u41 - u42 + u135 - u136  = 0
 c46: - a103 - f103 + u43 - u44 + u127 - u128  = 0
 c47: - a106 - f106 + u45 - u46 + u139 - u140  = 0
 c48: - a107 - f107 + u47 - u48 + u131 - u132  = 0
 c49: - a110 - f110 + u49 - u50 + u143 - u144  = 0
 c50: - a124 - f124 + u63 - u64 + u145 - u146  = 0
 c51: - a125 - f125 + u65 - u66 + u137 - u138  = 0
 c52: - a129 - f129 + u69 - u70 + u141 - u142  = 0
 c53: - a132 - f132 + u71 - u72 + u153 - u154 - u243  = 0
 c54: - a138 - f138 + u77 - u78 + u149 - u150  = 0
 c55: - a140 - f140 + u79 - u80 + u151 - u152  = 0
 c56: - a146 - f146 + u85 - u86 + u155 - u156  = 0
 c57: - a147 - f147 + u87 - u88 + u147 - u148  = 0
 c58: - a154 - f154 + u93 - u94 + u163 - u164  = 0
 c59: - a161 - f161 + u101 - u102 + u159 - u160  = 0
 c60: - a163 - f163 + u103 - u104 + u161 - u162 - u237 - u238 - u240 - u241
      - u244 - u246  = 0
 c61: - a169 - f169 + u109 - u110 + u157 - u158  = 0
 c62: u237 + u238 + u239 + u240 + u241 + u242 + u243 + u244 + u245 + u246  = 0
Bounds
      a0 Free
      a1 Free
      a2 Free
      a3 Free
      a4 Free
      a5 Free
      a6 Free
      a11 Free
      a13 Free
      a15 Free
      a17 Free
      a18 Free
      a19 Free
      a20 Free
      a21 Free
      a22 Free
      a28 Free
      a29 Free
      a30 Free
      a31 Free
      a32 Free
      a33 Free
      a36 Free
      a39 Free
      a40 Free
      a43 Free
      a44 Free
      a47 Free
      a48 Free
      a50 Free
      a51 Free
      a52 Free
      a55 Free
      a56 Free
      a58 Free
      a59 Free
      a60 Free
      a70 Free
      a72 Free
      a74 Free
      a76 Free
      a80 Free
      a84 Free
      a88 Free
      a102 Free
      a103 Free
      a106 Free
      a107 Free
      a110 Free
      a124 Free
      a125 Free
      a129 Free
      a132 Free
      a138 Free
      a140 Free
      a146 Free
      a147 Free
      a154 Free
      a161 Free
      a163 Free
      a169 Free
 0 <= f0 <= 0.99
 0 <= f1 <= 0.99
 0 <= f2 <= 0.99
 0 <= f3 <= 0.99
 0 <= f4 <= 0.99
 0 <= f5 <= 0.99
 0 <= f6 <= 0.99
 0 <= f11 <= 0.99
 0 <= f13 <= 0.99
 0 <= f15 <= 0.99
 0 <= f17 <= 0.99
 0 <= f18 <= 0.99
 0 <= f19 <= 0.99
 0 <= f20 <= 0.99
 0 <= f21 <= 0.99
 0 <= f22 <= 0.99
 0 <= f28 <= 0.99
 0 <= f29 <= 0.99
 0 <= f30 <= 0.99
 0 <= f31 <= 0.99
 0 <= f32 <= 0.99
 0 <= f33 <= 0.99
 0 <= f36 <= 0.99
 0 <= f39 <= 0.99
 0 <= f40 <= 0.99
 0 <= f43 <= 0.99
 0 <= f44 <= 0.99
 0 <= f47 <= 0.99
 0 <= f48 <= 0.99
 0 <= f50 <= 0.99
 0 <= f51 <= 0.99
 0 <= f52 <= 0.99
 0 <= f55 <= 0.99
 0 <= f56 <= 0.99
 0 <= f58 <= 0.99
 0 <= f59 <= 0.99
 0 <= f60 <= 0.99
 0 <= f70 <= 0.99
 0 <= f72 <= 0.99
 0 <= f74 <= 0.99
 0 <= f76 <= 0.99
 0 <= f80 <= 0.99
 0 <= f84 <= 0.99
 0 <= f88 <= 0.99
 0 <= f102 <= 0.99
 0 <= f103 <= 0.99
 0 <= f106 <= 0.99
 0 <= f107 <= 0.99
 0 <= f110 <= 0.99
 0 <= f124 <= 0.99
 0 <= f125 <= 0.99
 0 <= f129 <= 0.99
 0 <= f132 <= 0.99
 0 <= f138 <= 0.99
 0 <= f140 <= 0.99
 0 <= f146 <= 0.99
 0 <= f147 <= 0.99
 0 <= f154 <= 0.99
 0 <= f161 <= 0.99
 0 <= f163 <= 0.99
 0 <= f169 <= 0.99
Generals
 a0  a1  a2  a3  a4  a5  a6  a11  a13  a15  a17  a18  a19  a20  a21  a22  a28 
 a29  a30  a31  a32  a33  a36  a39  a40  a43  a44  a47  a48  a50  a51  a52 
 a55  a56  a58  a59  a60  a70  a72  a74  a76  a80  a84  a88  a102  a103  a106 
 a107  a110  a124  a125  a129  a132  a138  a140  a146  a147  a154  a161  a163 
 a169 
End
